molecule {
0 1
   C       -1.80336        1.20947        1.43058
  Si       -1.57795        0.00337        0.00637
   O        0.00094        0.00841       -0.54386
  Si        1.57854        0.00088        0.01037
   C        1.80422       -1.24968        1.39558
   C        2.75099       -0.45006       -1.38858
   C        2.05666        1.69951        0.65871
   C       -2.06348       -1.71352        0.59857
   C       -2.74516        0.50325       -1.38030
   H       -1.53138        2.22349        1.12309
   H       -2.84505        1.21946        1.76463
   H       -1.17455        0.92701        2.28010
   H        1.53784       -2.25437        1.05447
   H        2.84480       -1.26597        1.73294
   H        1.17120       -0.99760        2.25150
   H        2.66700        0.27019       -2.20762
   H        3.78713       -0.45336       -1.03761
   H        2.51691       -1.44450       -1.77980
   H        1.42031        1.98501        1.50137
   H        3.09688        1.70370        0.99741
   H        1.94734        2.45423       -0.12565
   H       -3.10377       -1.72438        0.93684
   H       -1.95722       -2.44260       -0.21011
   H       -1.42851       -2.02922        1.43146
   H       -2.50583        1.50850       -1.73944
   H       -2.66228       -0.19117       -2.22147
   H       -3.78211        0.50004       -1.03177
}
set basis cc-pvdz
set df_basis_scf 6-311gs
set freeze_core True
set cubeprop_tasks ['esp']
#set cubic_grid_overage [10,10,10]
E, wfn = energy('b3lyp', return_wfn=True)
cubeprop(wfn)
